c Reduced graph for myciel7g generated by Cyril Grelier
p edge 191 2360
e 1 7
e 1 10
e 1 11
e 1 18
e 1 19
e 1 21
e 1 22
e 1 25
e 1 28
e 1 29
e 1 32
e 1 36
e 1 39
e 1 40
e 1 41
e 1 48
e 1 51
e 1 53
e 1 55
e 1 56
e 1 57
e 1 58
e 1 61
e 1 62
e 1 63
e 1 64
e 1 66
e 1 68
e 1 70
e 1 71
e 1 72
e 1 73
e 1 74
e 1 75
e 1 76
e 1 78
e 1 79
e 1 86
e 1 92
e 1 96
e 1 99
e 1 100
e 1 104
e 1 105
e 1 111
e 1 112
e 1 113
e 1 114
e 1 115
e 1 120
e 1 124
e 1 130
e 1 134
e 1 135
e 1 136
e 1 137
e 1 138
e 1 142
e 1 143
e 1 145
e 1 146
e 1 147
e 1 148
e 1 152
e 1 155
e 1 156
e 1 159
e 1 162
e 1 163
e 1 164
e 1 165
e 1 168
e 1 171
e 1 172
e 1 174
e 1 176
e 1 177
e 1 178
e 1 179
e 1 180
e 1 181
e 1 183
e 1 184
e 1 187
e 1 188
e 1 189
e 1 190
e 1 191
e 2 4
e 2 5
e 2 10
e 2 11
e 2 12
e 2 13
e 2 14
e 2 15
e 2 16
e 2 17
e 2 21
e 2 22
e 2 25
e 2 28
e 2 29
e 2 30
e 2 31
e 2 33
e 2 34
e 2 35
e 2 36
e 2 37
e 2 38
e 2 41
e 2 43
e 2 48
e 2 49
e 2 50
e 2 58
e 2 61
e 2 62
e 2 63
e 2 64
e 2 65
e 2 67
e 2 73
e 2 74
e 2 75
e 2 76
e 2 77
e 2 79
e 2 83
e 2 92
e 2 93
e 2 94
e 2 95
e 2 100
e 2 104
e 2 105
e 2 108
e 2 109
e 2 110
e 2 113
e 2 115
e 2 129
e 2 131
e 2 132
e 2 133
e 2 141
e 2 144
e 2 146
e 2 148
e 2 153
e 2 159
e 2 165
e 2 168
e 2 169
e 2 170
e 2 173
e 2 176
e 2 177
e 2 180
e 2 181
e 2 183
e 2 184
e 2 185
e 2 186
e 2 189
e 2 190
e 2 191
e 3 4
e 3 5
e 3 7
e 3 15
e 3 17
e 3 19
e 3 23
e 3 24
e 3 25
e 3 29
e 3 30
e 3 31
e 3 32
e 3 33
e 3 35
e 3 36
e 3 37
e 3 39
e 3 41
e 3 46
e 3 48
e 3 49
e 3 57
e 3 58
e 3 62
e 3 63
e 3 70
e 3 73
e 3 74
e 3 76
e 3 77
e 3 88
e 3 89
e 3 91
e 3 94
e 3 96
e 3 101
e 3 107
e 3 110
e 3 118
e 3 119
e 3 124
e 3 125
e 3 127
e 3 129
e 3 131
e 3 135
e 3 137
e 3 139
e 3 142
e 3 145
e 3 147
e 3 149
e 3 151
e 3 159
e 3 164
e 3 165
e 3 167
e 3 170
e 3 177
e 3 178
e 3 181
e 3 188
e 3 189
e 4 8
e 4 9
e 4 18
e 4 27
e 4 47
e 4 51
e 4 53
e 4 54
e 4 55
e 4 56
e 4 59
e 4 66
e 4 68
e 4 71
e 4 72
e 4 78
e 4 81
e 4 85
e 4 90
e 4 97
e 4 98
e 4 99
e 4 103
e 4 106
e 4 111
e 4 114
e 4 116
e 4 120
e 4 123
e 4 128
e 4 130
e 4 140
e 4 143
e 4 152
e 4 154
e 4 155
e 4 156
e 4 157
e 4 162
e 4 163
e 4 166
e 4 172
e 4 174
e 4 175
e 4 182
e 4 187
e 5 8
e 5 9
e 5 18
e 5 26
e 5 27
e 5 40
e 5 51
e 5 54
e 5 56
e 5 60
e 5 66
e 5 68
e 5 71
e 5 78
e 5 82
e 5 85
e 5 86
e 5 87
e 5 97
e 5 98
e 5 102
e 5 103
e 5 111
e 5 112
e 5 114
e 5 116
e 5 120
e 5 123
e 5 126
e 5 128
e 5 130
e 5 134
e 5 136
e 5 138
e 5 150
e 5 154
e 5 156
e 5 158
e 5 162
e 5 163
e 5 166
e 5 171
e 5 172
e 5 175
e 5 179
e 5 187
e 6 8
e 6 12
e 6 13
e 6 19
e 6 21
e 6 22
e 6 23
e 6 30
e 6 32
e 6 36
e 6 42
e 6 44
e 6 53
e 6 58
e 6 59
e 6 65
e 6 66
e 6 87
e 6 88
e 6 93
e 6 94
e 6 96
e 6 97
e 6 100
e 6 101
e 6 102
e 6 113
e 6 123
e 6 125
e 6 129
e 6 130
e 6 134
e 6 141
e 6 142
e 6 143
e 6 146
e 6 157
e 6 160
e 6 162
e 6 165
e 6 166
e 6 169
e 6 170
e 6 171
e 6 172
e 6 176
e 6 177
e 7 8
e 7 9
e 7 12
e 7 14
e 7 16
e 7 20
e 7 27
e 7 38
e 7 43
e 7 44
e 7 45
e 7 47
e 7 50
e 7 52
e 7 59
e 7 65
e 7 67
e 7 69
e 7 81
e 7 83
e 7 84
e 7 90
e 7 93
e 7 103
e 7 106
e 7 109
e 7 116
e 7 128
e 7 133
e 7 140
e 7 141
e 7 144
e 7 157
e 7 160
e 7 166
e 7 173
e 7 182
e 7 185
e 8 15
e 8 17
e 8 25
e 8 29
e 8 33
e 8 35
e 8 46
e 8 48
e 8 49
e 8 57
e 8 62
e 8 63
e 8 74
e 8 76
e 8 89
e 8 91
e 8 107
e 8 117
e 8 118
e 8 119
e 8 121
e 8 124
e 8 127
e 8 131
e 8 135
e 8 137
e 8 147
e 8 159
e 8 161
e 8 164
e 8 167
e 8 178
e 9 15
e 9 17
e 9 19
e 9 24
e 9 29
e 9 31
e 9 46
e 9 48
e 9 57
e 9 58
e 9 63
e 9 70
e 9 73
e 9 80
e 9 88
e 9 91
e 9 94
e 9 96
e 9 110
e 9 118
e 9 119
e 9 122
e 9 124
e 9 125
e 9 129
e 9 137
e 9 139
e 9 145
e 9 159
e 9 165
e 9 181
e 10 20
e 10 26
e 10 44
e 10 45
e 10 46
e 10 52
e 10 54
e 10 60
e 10 69
e 10 82
e 10 84
e 10 85
e 10 87
e 10 89
e 10 97
e 10 98
e 10 101
e 10 102
e 10 118
e 10 123
e 10 125
e 10 126
e 10 139
e 10 149
e 10 150
e 10 154
e 10 158
e 10 160
e 10 167
e 10 175
e 11 20
e 11 23
e 11 24
e 11 44
e 11 45
e 11 47
e 11 52
e 11 54
e 11 59
e 11 69
e 11 81
e 11 84
e 11 85
e 11 88
e 11 90
e 11 91
e 11 97
e 11 98
e 11 106
e 11 107
e 11 119
e 11 123
e 11 127
e 11 140
e 11 151
e 11 154
e 11 157
e 11 160
e 11 175
e 11 182
e 12 18
e 12 26
e 12 46
e 12 51
e 12 68
e 12 82
e 12 85
e 12 86
e 12 89
e 12 98
e 12 117
e 12 118
e 12 120
e 12 121
e 12 126
e 12 135
e 12 136
e 12 137
e 12 138
e 12 154
e 12 158
e 12 161
e 12 167
e 12 178
e 12 179
e 13 18
e 13 47
e 13 51
e 13 55
e 13 57
e 13 68
e 13 72
e 13 81
e 13 85
e 13 90
e 13 91
e 13 98
e 13 99
e 13 106
e 13 107
e 13 117
e 13 119
e 13 120
e 13 121
e 13 124
e 13 127
e 13 147
e 13 154
e 13 155
e 13 161
e 13 164
e 14 18
e 14 19
e 14 24
e 14 46
e 14 54
e 14 57
e 14 70
e 14 80
e 14 88
e 14 91
e 14 96
e 14 111
e 14 118
e 14 119
e 14 120
e 14 122
e 14 123
e 14 124
e 14 125
e 14 130
e 14 137
e 14 139
e 14 145
e 14 154
e 15 42
e 15 51
e 15 53
e 15 55
e 15 59
e 15 66
e 15 81
e 15 85
e 15 90
e 15 97
e 15 120
e 15 123
e 15 130
e 15 143
e 15 155
e 15 156
e 15 157
e 15 162
e 15 163
e 15 166
e 15 172
e 16 42
e 16 51
e 16 66
e 16 82
e 16 85
e 16 86
e 16 87
e 16 89
e 16 96
e 16 97
e 16 101
e 16 102
e 16 118
e 16 120
e 16 123
e 16 125
e 16 126
e 16 130
e 16 134
e 16 135
e 16 136
e 16 142
e 16 171
e 17 42
e 17 51
e 17 66
e 17 82
e 17 85
e 17 86
e 17 87
e 17 97
e 17 102
e 17 120
e 17 123
e 17 126
e 17 130
e 17 134
e 17 136
e 17 156
e 17 162
e 17 163
e 17 166
e 17 171
e 17 172
e 18 30
e 18 42
e 18 43
e 18 44
e 18 45
e 18 49
e 18 50
e 18 65
e 18 83
e 18 93
e 18 94
e 18 95
e 18 129
e 18 131
e 18 141
e 18 153
e 18 160
e 18 169
e 18 170
e 19 20
e 19 26
e 19 27
e 19 34
e 19 45
e 19 82
e 19 83
e 19 84
e 19 95
e 19 117
e 19 121
e 19 126
e 19 128
e 19 132
e 19 133
e 19 153
e 19 158
e 19 161
e 19 173
e 20 21
e 20 22
e 20 42
e 20 48
e 20 53
e 20 58
e 20 80
e 20 86
e 20 92
e 20 96
e 20 100
e 20 120
e 20 124
e 20 130
e 20 134
e 20 155
e 20 156
e 20 159
e 20 162
e 20 165
e 21 26
e 21 45
e 21 46
e 21 82
e 21 84
e 21 85
e 21 89
e 21 98
e 21 117
e 21 118
e 21 121
e 21 126
e 21 154
e 21 158
e 21 161
e 21 167
e 22 45
e 22 47
e 22 81
e 22 84
e 22 85
e 22 90
e 22 91
e 22 98
e 22 106
e 22 107
e 22 117
e 22 119
e 22 121
e 22 127
e 22 154
e 22 161
e 23 56
e 23 64
e 23 80
e 23 82
e 23 83
e 23 86
e 23 92
e 23 117
e 23 122
e 23 128
e 23 132
e 23 133
e 23 138
e 23 153
e 23 156
e 23 158
e 23 168
e 24 42
e 24 61
e 24 82
e 24 83
e 24 86
e 24 92
e 24 95
e 24 105
e 24 117
e 24 121
e 24 126
e 24 136
e 24 153
e 24 156
e 24 163
e 25 44
e 25 47
e 25 52
e 25 54
e 25 80
e 25 81
e 25 84
e 25 103
e 25 122
e 25 123
e 25 128
e 25 140
e 25 154
e 25 157
e 26 42
e 26 43
e 26 48
e 26 53
e 26 80
e 26 81
e 26 88
e 26 94
e 26 119
e 26 124
e 26 155
e 26 157
e 26 165
e 27 42
e 27 48
e 27 58
e 27 80
e 27 88
e 27 94
e 27 96
e 27 118
e 27 119
e 27 124
e 27 125
e 27 129
e 27 159
e 27 165
e 28 42
e 28 44
e 28 45
e 28 82
e 28 85
e 28 87
e 28 89
e 28 97
e 28 101
e 28 102
e 28 118
e 28 123
e 28 125
e 28 126
e 28 160
e 29 42
e 29 44
e 29 45
e 29 82
e 29 85
e 29 87
e 29 97
e 29 102
e 29 123
e 29 126
e 29 160
e 29 166
e 30 47
e 30 56
e 30 80
e 30 81
e 30 99
e 30 117
e 30 120
e 30 122
e 30 128
e 30 154
e 30 155
e 30 156
e 31 42
e 31 51
e 31 55
e 31 81
e 31 85
e 31 90
e 31 117
e 31 120
e 31 121
e 31 155
e 31 156
e 31 163
e 32 80
e 32 82
e 32 83
e 32 84
e 32 117
e 32 122
e 32 128
e 32 132
e 32 133
e 32 153
e 32 158
e 33 42
e 33 53
e 33 80
e 33 81
e 33 120
e 33 123
e 33 130
e 33 155
e 33 156
e 33 157
e 33 162
e 34 42
e 34 53
e 34 80
e 34 81
e 34 88
e 34 119
e 34 120
e 34 123
e 34 124
e 34 130
e 34 155
e 34 157
e 35 42
e 35 80
e 35 82
e 35 86
e 35 87
e 35 120
e 35 123
e 35 130
e 35 134
e 35 156
e 35 162
e 36 47
e 36 80
e 36 81
e 36 84
e 36 117
e 36 122
e 36 128
e 36 154
e 37 42
e 37 80
e 37 81
e 37 117
e 37 120
e 37 155
e 37 156
e 38 42
e 38 80
e 38 117
e 38 118
e 38 119
e 38 120
e 38 124
e 39 42
e 39 43
e 39 80
e 39 81
e 39 83
e 39 117
e 40 42
e 40 43
e 40 80
e 40 81
e 40 117
e 40 119
e 41 42
e 41 80
e 41 82
e 41 117
e 42 46
e 42 47
e 42 52
e 42 54
e 42 56
e 42 57
e 42 60
e 42 63
e 42 64
e 42 67
e 42 68
e 42 69
e 42 70
e 42 71
e 42 72
e 42 73
e 42 74
e 42 75
e 42 76
e 42 77
e 42 78
e 42 79
e 42 84
e 42 91
e 42 98
e 42 99
e 42 103
e 42 106
e 42 107
e 42 108
e 42 109
e 42 110
e 42 111
e 42 112
e 42 114
e 42 115
e 42 116
e 42 122
e 42 128
e 42 132
e 42 133
e 42 137
e 42 138
e 42 139
e 42 140
e 42 144
e 42 145
e 42 147
e 42 148
e 42 149
e 42 150
e 42 151
e 42 152
e 42 154
e 42 158
e 42 161
e 42 167
e 42 168
e 42 173
e 42 174
e 42 175
e 42 178
e 42 179
e 42 180
e 42 181
e 42 182
e 42 183
e 42 184
e 42 185
e 42 186
e 42 187
e 42 188
e 42 189
e 42 190
e 42 191
e 43 46
e 43 51
e 43 54
e 43 60
e 43 66
e 43 68
e 43 70
e 43 78
e 43 82
e 43 85
e 43 86
e 43 87
e 43 89
e 43 96
e 43 97
e 43 98
e 43 101
e 43 102
e 43 111
e 43 112
e 43 118
e 43 120
e 43 123
e 43 125
e 43 126
e 43 130
e 43 134
e 43 135
e 43 136
e 43 137
e 43 138
e 43 139
e 43 142
e 43 149
e 43 150
e 43 154
e 43 158
e 43 167
e 43 171
e 43 175
e 43 178
e 43 179
e 44 48
e 44 51
e 44 55
e 44 56
e 44 57
e 44 61
e 44 62
e 44 63
e 44 64
e 44 68
e 44 72
e 44 74
e 44 75
e 44 76
e 44 86
e 44 92
e 44 99
e 44 104
e 44 105
e 44 114
e 44 117
e 44 120
e 44 121
e 44 124
e 44 135
e 44 136
e 44 137
e 44 138
e 44 147
e 44 155
e 44 156
e 44 159
e 44 161
e 44 163
e 44 164
e 44 168
e 44 178
e 44 179
e 44 183
e 44 184
e 45 48
e 45 53
e 45 56
e 45 57
e 45 58
e 45 63
e 45 64
e 45 70
e 45 71
e 45 73
e 45 80
e 45 86
e 45 92
e 45 96
e 45 99
e 45 100
e 45 111
e 45 112
e 45 115
e 45 120
e 45 122
e 45 124
e 45 130
e 45 134
e 45 137
e 45 138
e 45 145
e 45 148
e 45 155
e 45 156
e 45 159
e 45 162
e 45 165
e 45 168
e 45 174
e 45 180
e 45 181
e 46 50
e 46 53
e 46 55
e 46 59
e 46 61
e 46 65
e 46 81
e 46 83
e 46 90
e 46 92
e 46 93
e 46 100
e 46 104
e 46 113
e 46 141
e 46 143
e 46 155
e 46 156
e 46 157
e 46 162
e 46 163
e 46 166
e 46 172
e 46 176
e 47 49
e 47 58
e 47 82
e 47 86
e 47 87
e 47 89
e 47 95
e 47 96
e 47 101
e 47 102
e 47 105
e 47 118
e 47 125
e 47 126
e 47 129
e 47 134
e 47 135
e 47 136
e 47 142
e 47 146
e 47 153
e 47 159
e 47 169
e 47 171
e 48 52
e 48 54
e 48 60
e 48 69
e 48 82
e 48 84
e 48 85
e 48 87
e 48 97
e 48 98
e 48 102
e 48 103
e 48 116
e 48 123
e 48 126
e 48 128
e 48 150
e 48 154
e 48 158
e 48 160
e 48 166
e 48 175
e 49 53
e 49 54
e 49 56
e 49 71
e 49 80
e 49 81
e 49 99
e 49 103
e 49 111
e 49 120
e 49 122
e 49 123
e 49 128
e 49 130
e 49 140
e 49 154
e 49 155
e 49 156
e 49 157
e 49 162
e 49 174
e 50 54
e 50 60
e 50 70
e 50 80
e 50 82
e 50 86
e 50 87
e 50 96
e 50 111
e 50 112
e 50 118
e 50 120
e 50 122
e 50 123
e 50 125
e 50 130
e 50 134
e 50 137
e 50 138
e 50 139
e 50 154
e 50 158
e 51 52
e 51 67
e 51 80
e 51 83
e 51 84
e 51 93
e 51 94
e 51 108
e 51 109
e 51 110
e 51 122
e 51 129
e 51 132
e 51 133
e 51 153
e 52 55
e 52 61
e 52 62
e 52 86
e 52 92
e 52 104
e 52 105
e 52 117
e 52 120
e 52 121
e 52 124
e 52 135
e 52 136
e 52 155
e 52 156
e 52 159
e 52 163
e 52 164
e 53 82
e 53 84
e 53 89
e 53 95
e 53 117
e 53 118
e 53 121
e 53 126
e 53 132
e 53 153
e 53 158
e 53 161
e 53 167
e 54 61
e 54 62
e 54 83
e 54 92
e 54 95
e 54 104
e 54 105
e 54 117
e 54 121
e 54 131
e 54 153
e 54 159
e 55 60
e 55 80
e 55 82
e 55 84
e 55 87
e 55 108
e 55 118
e 55 122
e 55 125
e 55 129
e 55 132
e 55 139
e 55 153
e 55 158
e 56 88
e 56 89
e 56 94
e 56 101
e 56 118
e 56 119
e 56 125
e 56 127
e 56 129
e 56 131
e 56 160
e 56 170
e 57 82
e 57 83
e 57 87
e 57 93
e 57 95
e 57 102
e 57 126
e 57 141
e 57 153
e 57 160
e 57 166
e 57 169
e 58 81
e 58 84
e 58 85
e 58 90
e 58 98
e 58 106
e 58 117
e 58 121
e 58 128
e 58 154
e 58 161
e 59 63
e 59 80
e 59 82
e 59 86
e 59 117
e 59 118
e 59 122
e 59 132
e 59 137
e 59 138
e 59 153
e 59 158
e 59 159
e 59 168
e 60 62
e 60 81
e 60 90
e 60 104
e 60 117
e 60 119
e 60 121
e 60 124
e 60 127
e 60 131
e 60 155
e 60 164
e 61 80
e 61 84
e 61 88
e 61 91
e 61 118
e 61 119
e 61 122
e 61 123
e 61 125
e 61 139
e 61 154
e 62 80
e 62 82
e 62 84
e 62 87
e 62 103
e 62 122
e 62 123
e 62 128
e 62 154
e 62 158
e 63 81
e 63 85
e 63 90
e 63 97
e 63 123
e 63 157
e 63 160
e 63 166
e 64 85
e 64 88
e 64 89
e 64 97
e 64 101
e 64 118
e 64 119
e 64 123
e 64 125
e 64 127
e 64 160
e 65 80
e 65 82
e 65 86
e 65 117
e 65 118
e 65 120
e 65 122
e 65 137
e 65 138
e 65 154
e 65 158
e 66 80
e 66 83
e 66 84
e 66 117
e 66 122
e 66 132
e 66 133
e 66 153
e 67 82
e 67 85
e 67 86
e 67 89
e 67 117
e 67 118
e 67 120
e 67 121
e 67 126
e 67 135
e 67 136
e 68 80
e 68 83
e 68 93
e 68 94
e 68 129
e 68 153
e 69 80
e 69 86
e 69 92
e 69 117
e 69 120
e 69 124
e 69 155
e 69 156
e 69 159
e 70 81
e 70 83
e 70 90
e 70 117
e 70 121
e 71 89
e 71 117
e 71 118
e 71 119
e 71 121
e 71 127
e 71 131
e 72 80
e 72 82
e 72 87
e 72 118
e 72 125
e 72 129
e 72 153
e 73 81
e 73 85
e 73 90
e 73 117
e 73 121
e 74 80
e 74 81
e 74 123
e 74 157
e 75 80
e 75 88
e 75 118
e 75 119
e 75 123
e 75 125
e 76 80
e 76 82
e 76 87
e 76 123
e 77 80
e 77 82
e 77 86
e 77 117
e 77 120
e 77 156
e 78 80
e 78 83
e 78 117
e 78 153
e 79 80
e 79 81
e 79 117
e 79 119
e 80 85
e 80 89
e 80 90
e 80 95
e 80 97
e 80 98
e 80 101
e 80 102
e 80 104
e 80 105
e 80 106
e 80 107
e 80 113
e 80 114
e 80 116
e 80 121
e 80 126
e 80 127
e 80 131
e 80 135
e 80 136
e 80 141
e 80 142
e 80 143
e 80 144
e 80 146
e 80 147
e 80 149
e 80 150
e 80 151
e 80 152
e 80 160
e 80 161
e 80 163
e 80 164
e 80 166
e 80 167
e 80 169
e 80 170
e 80 171
e 80 172
e 80 173
e 80 175
e 80 176
e 80 177
e 80 178
e 80 179
e 80 182
e 80 183
e 80 184
e 80 185
e 80 186
e 80 187
e 80 188
e 80 189
e 80 190
e 80 191
e 81 82
e 81 86
e 81 87
e 81 89
e 81 95
e 81 96
e 81 101
e 81 102
e 81 105
e 81 108
e 81 112
e 81 118
e 81 125
e 81 126
e 81 129
e 81 132
e 81 134
e 81 135
e 81 136
e 81 137
e 81 138
e 81 139
e 81 142
e 81 146
e 81 148
e 81 149
e 81 150
e 81 153
e 81 158
e 81 159
e 81 167
e 81 168
e 81 169
e 81 171
e 81 178
e 81 179
e 81 184
e 81 186
e 81 189
e 82 88
e 82 90
e 82 91
e 82 94
e 82 99
e 82 104
e 82 106
e 82 107
e 82 110
e 82 113
e 82 115
e 82 119
e 82 124
e 82 127
e 82 131
e 82 140
e 82 143
e 82 144
e 82 145
e 82 147
e 82 151
e 82 152
e 82 155
e 82 157
e 82 164
e 82 165
e 82 170
e 82 174
e 82 177
e 82 181
e 82 182
e 82 183
e 82 185
e 82 188
e 82 190
e 83 85
e 83 88
e 83 89
e 83 91
e 83 96
e 83 97
e 83 98
e 83 101
e 83 107
e 83 111
e 83 118
e 83 119
e 83 120
e 83 123
e 83 124
e 83 125
e 83 127
e 83 130
e 83 135
e 83 137
e 83 139
e 83 142
e 83 145
e 83 147
e 83 149
e 83 151
e 83 154
e 83 164
e 83 167
e 83 175
e 83 178
e 83 188
e 84 86
e 84 92
e 84 96
e 84 100
e 84 104
e 84 105
e 84 113
e 84 120
e 84 124
e 84 130
e 84 134
e 84 135
e 84 136
e 84 142
e 84 143
e 84 146
e 84 155
e 84 156
e 84 159
e 84 162
e 84 163
e 84 164
e 84 165
e 84 171
e 84 172
e 84 176
e 84 177
e 85 92
e 85 93
e 85 94
e 85 100
e 85 108
e 85 109
e 85 110
e 85 115
e 85 122
e 85 129
e 85 132
e 85 133
e 85 148
e 85 153
e 85 159
e 85 165
e 85 168
e 85 180
e 85 181
e 86 88
e 86 90
e 86 91
e 86 94
e 86 106
e 86 107
e 86 110
e 86 119
e 86 127
e 86 131
e 86 140
e 86 144
e 86 151
e 86 157
e 86 160
e 86 170
e 86 182
e 86 185
e 87 90
e 87 91
e 87 99
e 87 104
e 87 106
e 87 107
e 87 117
e 87 119
e 87 121
e 87 124
e 87 127
e 87 131
e 87 144
e 87 147
e 87 155
e 87 161
e 87 164
e 87 183
e 88 92
e 88 95
e 88 105
e 88 114
e 88 117
e 88 121
e 88 126
e 88 128
e 88 132
e 88 133
e 88 136
e 88 138
e 88 153
e 88 156
e 88 158
e 88 161
e 88 163
e 88 168
e 88 173
e 88 179
e 88 184
e 89 92
e 89 93
e 89 99
e 89 100
e 89 103
e 89 109
e 89 115
e 89 122
e 89 128
e 89 133
e 89 140
e 89 155
e 89 156
e 89 157
e 89 162
e 89 174
e 89 180
e 90 96
e 90 108
e 90 112
e 90 118
e 90 122
e 90 125
e 90 129
e 90 132
e 90 134
e 90 137
e 90 138
e 90 139
e 90 148
e 90 153
e 90 158
e 90 159
e 90 168
e 91 92
e 91 93
e 91 95
e 91 100
e 91 102
e 91 105
e 91 126
e 91 134
e 91 136
e 91 141
e 91 146
e 91 153
e 91 156
e 91 162
e 91 163
e 91 166
e 91 169
e 91 171
e 91 172
e 91 176
e 92 97
e 92 98
e 92 101
e 92 107
e 92 118
e 92 119
e 92 123
e 92 125
e 92 127
e 92 139
e 92 149
e 92 151
e 92 154
e 92 160
e 92 167
e 92 175
e 93 98
e 93 107
e 93 117
e 93 118
e 93 119
e 93 120
e 93 121
e 93 124
e 93 127
e 93 135
e 93 137
e 93 147
e 93 154
e 93 161
e 93 164
e 93 167
e 93 178
e 94 98
e 94 114
e 94 117
e 94 120
e 94 121
e 94 126
e 94 128
e 94 136
e 94 138
e 94 154
e 94 156
e 94 158
e 94 161
e 94 163
e 94 179
e 95 99
e 95 111
e 95 119
e 95 120
e 95 122
e 95 123
e 95 124
e 95 130
e 95 140
e 95 145
e 95 154
e 95 155
e 95 157
e 95 174
e 96 106
e 96 117
e 96 121
e 96 128
e 96 133
e 96 144
e 96 161
e 96 173
e 97 117
e 97 122
e 97 132
e 97 133
e 97 153
e 97 159
e 97 168
e 98 100
e 98 129
e 98 153
e 98 159
e 98 165
e 99 101
e 99 102
e 99 118
e 99 125
e 99 126
e 99 129
e 99 153
e 99 160
e 99 169
e 100 107
e 100 117
e 100 118
e 100 119
e 100 121
e 100 127
e 100 154
e 100 161
e 100 167
e 101 117
e 101 122
e 101 128
e 101 133
e 101 155
e 101 156
e 102 117
e 102 119
e 102 122
e 102 124
e 102 155
e 103 117
e 103 118
e 103 119
e 103 121
e 103 124
e 103 127
e 103 131
e 103 135
e 103 159
e 103 164
e 104 118
e 104 122
e 104 123
e 104 125
e 104 139
e 104 154
e 104 158
e 105 119
e 105 122
e 105 123
e 105 140
e 105 154
e 105 157
e 106 118
e 106 125
e 106 129
e 106 134
e 106 153
e 106 159
e 107 134
e 107 153
e 107 156
e 107 162
e 108 117
e 108 119
e 108 120
e 108 121
e 108 124
e 108 127
e 108 155
e 108 164
e 109 117
e 109 118
e 109 119
e 109 120
e 109 121
e 109 124
e 109 127
e 109 135
e 109 164
e 110 117
e 110 120
e 110 121
e 110 126
e 110 136
e 110 156
e 110 163
e 111 117
e 111 121
e 111 131
e 111 153
e 112 117
e 112 119
e 112 121
e 112 127
e 112 131
e 113 117
e 113 118
e 113 122
e 113 154
e 113 158
e 114 118
e 114 119
e 114 125
e 114 129
e 115 117
e 115 118
e 115 121
e 115 126
e 116 117
e 116 118
e 116 119
e 116 124
e 116 159
e 117 123
e 117 125
e 117 129
e 117 130
e 117 134
e 117 139
e 117 140
e 117 141
e 117 142
e 117 143
e 117 145
e 117 146
e 117 148
e 117 149
e 117 150
e 117 151
e 117 152
e 117 157
e 117 160
e 117 162
e 117 165
e 117 166
e 117 169
e 117 170
e 117 171
e 117 172
e 117 174
e 117 175
e 117 176
e 117 177
e 117 180
e 117 181
e 117 182
e 117 185
e 117 186
e 117 187
e 117 188
e 117 189
e 117 190
e 117 191
e 118 128
e 118 133
e 118 140
e 118 141
e 118 143
e 118 144
e 118 152
e 118 155
e 118 156
e 118 157
e 118 162
e 118 163
e 118 166
e 118 172
e 118 173
e 118 174
e 118 176
e 118 180
e 118 182
e 118 183
e 118 185
e 118 187
e 118 190
e 118 191
e 119 126
e 119 128
e 119 132
e 119 133
e 119 134
e 119 136
e 119 138
e 119 141
e 119 146
e 119 148
e 119 150
e 119 153
e 119 156
e 119 158
e 119 162
e 119 163
e 119 166
e 119 168
e 119 169
e 119 171
e 119 172
e 119 173
e 119 176
e 119 179
e 119 180
e 119 184
e 119 186
e 119 187
e 119 191
e 120 129
e 120 131
e 120 132
e 120 133
e 120 141
e 120 144
e 120 153
e 120 160
e 120 169
e 120 170
e 120 173
e 120 185
e 120 186
e 121 122
e 121 123
e 121 125
e 121 129
e 121 130
e 121 134
e 121 139
e 121 140
e 121 145
e 121 148
e 121 157
e 121 162
e 121 165
e 121 174
e 121 180
e 121 181
e 122 126
e 122 127
e 122 131
e 122 135
e 122 136
e 122 141
e 122 142
e 122 143
e 122 146
e 122 160
e 122 163
e 122 164
e 122 166
e 122 169
e 122 170
e 122 171
e 122 172
e 122 176
e 122 177
e 123 131
e 123 132
e 123 133
e 123 144
e 123 153
e 123 159
e 123 161
e 123 168
e 123 173
e 123 183
e 123 184
e 124 126
e 124 128
e 124 132
e 124 133
e 124 141
e 124 150
e 124 153
e 124 158
e 124 160
e 124 166
e 124 169
e 124 173
e 124 186
e 125 128
e 125 133
e 125 144
e 125 155
e 125 156
e 125 161
e 125 163
e 125 173
e 125 183
e 126 140
e 126 145
e 126 155
e 126 157
e 126 165
e 126 174
e 126 181
e 127 128
e 127 132
e 127 133
e 127 134
e 127 138
e 127 148
e 127 153
e 127 156
e 127 158
e 127 162
e 127 168
e 127 180
e 128 129
e 128 131
e 128 135
e 128 142
e 128 159
e 128 164
e 128 165
e 128 170
e 128 177
e 129 154
e 129 155
e 129 156
e 129 161
e 129 163
e 130 131
e 130 132
e 130 133
e 130 144
e 130 153
e 130 161
e 130 173
e 131 134
e 131 138
e 131 154
e 131 156
e 131 158
e 131 162
e 132 143
e 132 155
e 132 157
e 132 164
e 133 135
e 133 142
e 133 164
e 134 144
e 134 161
e 135 140
e 135 157
e 136 140
e 136 157
e 137 141
e 137 157
e 137 160
e 137 166
e 138 157
e 138 160
e 138 170
e 139 155
e 139 156
e 139 163
e 140 153
e 140 159
e 141 154
e 143 153
e 143 158
e 145 153
e 146 154
e 147 153
e 149 155
e 149 156
e 150 155
e 151 153
e 151 156
e 152 153
e 153 154
e 153 155
e 153 157
e 153 164
e 153 174
e 153 175
e 153 182
e 153 188
e 154 159
e 154 165
e 154 169
e 154 170
e 154 176
e 154 177
e 155 158
e 155 160
e 155 167
e 155 169
e 155 186
e 156 160
e 156 167
e 156 170
e 157 158
e 157 159
e 157 161
e 157 167
e 157 168
e 157 178
e 157 179
e 157 184
e 158 164
e 158 165
e 158 170
e 158 177
e 159 160
e 159 166
e 159 175
e 159 182
e 160 168
e 161 162
e 161 165
e 162 167
